(set-logic QF_S)
(declare-fun I () String)
(declare-fun K () String)
(declare-fun G () String)
(declare-fun E () String)
(declare-fun J () String)
(assert (= (str.++  E "aaa" E "aab" G G "b" K)  (str.++  "a" G "a" G I G I "b" J J "baa") ))
(check-sat)
(get-model)
